Problem:    
Rows:       113
Columns:    45 (34 integer, 34 binary)
Non-zeros:  350
Status:     INTEGER OPTIMAL
Objective:  value = 6.6275 (MINimum)

   No.   Row name        Activity     Lower bound   Upper bound
------ ------------    ------------- ------------- -------------
     1 r.5                   1030.63             0               
     2 r.6                  -1017.37      -1021.06               
     3 r.7                    6.6275             0               
     4 r.8                    6.6275      -1021.54               
     5 r.9                    6.6275             0               
     6 r.10                   6.6275      -1018.78               
     7 r.11                  1030.63             0               
     8 r.12                 -1017.37      -1020.07               
     9 r.13                  1030.63             0               
    10 r.14                 -1020.31      -1022.02               
    11 r.15                   6.6275             0               
    12 r.16                   6.6275      -1022.78               
    13 r.17                   6.6275             0               
    14 r.18                 -1020.95      -1021.22               
    15 r.19                  1030.63             0               
    16 r.20                  -1021.3      -1021.58               
    17 r.21                  1030.63             0               
    18 r.22                 -1023.73      -1023.73               
    19 r.23                   6.6275             0               
    20 r.24                    0.274      -1022.77               
    21 r.25                        1             1             = 
    22 r.26                        1             1             = 
    23 r.27                        1             1             = 
    24 r.28                        1             1             = 
    25 r.29                        1             1             = 
    26 r.30                     1025             2               
    27 r.31                    -1025         -1025               
    28 r.32                     2048      -1018.78               
    29 r.33                     1025             2               
    30 r.34                    -1025         -1025               
    31 r.35                     2048      -1020.07               
    32 r.36                        2             2               
    33 r.37                       -2         -1025               
    34 r.38                  -2.9375      -1022.02               
    35 r.39                     1024             2               
    36 r.40                    -1024         -1025               
    37 r.41                     2048      -1022.78               
    38 r.42                     1025             2               
    39 r.43                    -1025         -1025               
    40 r.44                  1020.43      -1021.22               
    41 r.45                     1025             2               
    42 r.46                    -1025         -1025               
    43 r.47                  2044.07      -1021.58               
    44 r.48                 -1017.65      -1021.06               
    45 r.49                   6.3535      -1021.54               
    46 r.50                 -1017.65      -1021.06               
    47 r.51                   6.3535      -1021.54               
    48 r.52                     1025             2               
    49 r.53                    -1025         -1025               
    50 r.54                     2048        2.9375               
    51 r.55                     1025             2               
    52 r.56                    -1025         -1025               
    53 r.57                     2048        2.4638               
    54 r.58                     1025             2               
    55 r.59                    -1025         -1025               
    56 r.60                  2045.06      -1022.02               
    57 r.61                     1025             2               
    58 r.62                    -1025         -1025               
    59 r.63                     2048      -1022.78               
    60 r.64                     1024             2               
    61 r.65                    -1024         -1025               
    62 r.66                  1020.43      -1021.22               
    63 r.67                        2             2               
    64 r.68                       -2         -1025               
    65 r.69                  -3.9298      -1021.58               
    66 r.70                   6.3535      -1018.78               
    67 r.71                 -1017.65      -1020.07               
    68 r.72                   6.3535      -1018.78               
    69 r.73                 -1017.65      -1020.07               
    70 r.74                        2             2               
    71 r.75                       -2         -1025               
    72 r.76                   2.9375        2.9375               
    73 r.77                     1024             2               
    74 r.78                    -1024         -1025               
    75 r.79                     2048        2.4638               
    76 r.80                     1025             2               
    77 r.81                    -1025         -1025               
    78 r.82                  2050.94        5.2197               
    79 r.83                     1025             2               
    80 r.84                    -1025         -1025               
    81 r.85                     2048        3.9298               
    82 r.86                     1025             2               
    83 r.87                    -1025         -1025               
    84 r.88                  1023.36      -1021.22               
    85 r.89                     1025             2               
    86 r.90                    -1025         -1025               
    87 r.91                  2044.07      -1021.58               
    88 r.92                 -1020.58      -1022.02               
    89 r.93                   6.3535      -1022.78               
    90 r.94                 -1020.58      -1022.02               
    91 r.95                   6.3535      -1022.78               
    92 r.96                     1025             2               
    93 r.97                    -1025         -1025               
    94 r.98                  3075.57        2.9375               
    95 r.99                     1025             2               
    96 r.100                   -1025         -1025               
    97 r.101                 2051.93        2.4638               
    98 r.102                    1024             2               
    99 r.103                   -1024         -1025               
   100 r.104                 3075.57        5.2197               
   101 r.105                       2             2               
   102 r.106                      -2         -1025               
   103 r.107                  3.9298        3.9298               
   104 r.108                    1025             2               
   105 r.109                   -1025         -1025               
   106 r.110                 3072.64          1.98               
   107 r.111                    1025             2               
   108 r.112                   -1025         -1025               
   109 r.113                 2051.93        1.2181               
   110 r.114                -1021.22      -1021.22               
   111 r.115                -1021.58      -1021.58               
   112 r.116                -1021.22      -1021.22               
   113 r.117                -1021.58      -1021.58               

   No. Column name       Activity     Lower bound   Upper bound
------ ------------    ------------- ------------- -------------
     1 tt                     6.6275             0               
     2 s_1_1        *              1             0             1 
     3 t_1_1                       0             0               
     4 s_2_1        *              0             0             1 
     5 t_2_1                       0             0               
     6 s_1_2        *              0             0             1 
     7 t_1_2                       0             0               
     8 s_2_2        *              1             0             1 
     9 t_2_2                       0             0               
    10 s_1_3        *              1             0             1 
    11 t_1_3                  2.9375             0               
    12 s_2_3        *              0             0             1 
    13 t_2_3                       0             0               
    14 s_1_4        *              0             0             1 
    15 t_1_4                 1027.57             0               
    16 s_2_4        *              1             0             1 
    17 t_2_4                  3.9298             0               
    18 s_1_5        *              1             0             1 
    19 t_1_5                  6.3535             0               
    20 s_2_5        *              0             0             1 
    21 t_2_5                  6.3535             0               
    22 r_1_1_2      *              1             0             1 
    23 u_1_1_2      *              0             0             1 
    24 r_2_1_2      *              1             0             1 
    25 u_2_1_2      *              0             0             1 
    26 r_1_1_3      *              0             0             1 
    27 u_1_1_3      *              0             0             1 
    28 r_2_1_3      *              1             0             1 
    29 u_2_1_3      *              0             0             1 
    30 r_1_1_4      *              1             0             1 
    31 u_1_1_4      *              0             0             1 
    32 r_2_1_4      *              1             0             1 
    33 u_2_1_4      *              0             0             1 
    34 r_1_2_3      *              1             0             1 
    35 u_1_2_3      *              0             0             1 
    36 r_2_2_3      *              1             0             1 
    37 u_2_2_3      *              0             0             1 
    38 r_1_2_4      *              1             0             1 
    39 u_1_2_4      *              0             0             1 
    40 r_2_2_4      *              0             0             1 
    41 u_2_2_4      *              0             0             1 
    42 r_1_3_4      *              1             0             1 
    43 u_1_3_4      *              0             0             1 
    44 r_2_3_4      *              1             0             1 
    45 u_2_3_4      *              0             0             1 

Integer feasibility conditions:

KKT.PE: max.abs.err = 2.27e-13 on row 18
        max.rel.err = 1.08e-16 on row 18
        High quality

KKT.PB: max.abs.err = 1.14e-13 on row 103
        max.rel.err = 2.31e-14 on row 103
        High quality

End of output
